# Objective value = 11
y 11
x1 3
r1 0
y1 0
p12 1
q12 0
p13 0
q13 0
p14 0
q14 0
p15 0
q15 0
p16 0
q16 0
p17 1
q17 0
x2 1
r2 0
y2 0
p23 0
q23 0
p24 0
q24 0
p25 0
q25 0
p26 0
q26 0
p27 1
q27 0
x3 5
r3 1
y3 2
p34 0
q34 0
p35 0
q35 1
p36 0
q36 1
p37 1
q37 0
x4 12
r4 1
y4 2
p45 0
q45 1
p46 0
q46 1
p47 1
q47 0
x5 5
r5 0
y5 5
p56 0
q56 0
p57 1
q57 0
x6 9
r6 0
y6 5
p67 1
q67 0
x7 0
r7 0
y7 0
